Solver command line: ['C:\\gurobi1002\\win64\\bin\\gurobi.bat']

Set parameter Username
Academic license - for non-commercial use only - expires 2024-08-20
Read LP format model from file C:\Users\mhafeman\AppData\Local\Temp\tmp0ix18nl5.pyomo.lp
Reading time = 1.34 seconds
obj: 297841 rows, 262799 columns, 709547 nonzeros
Gurobi Optimizer version 10.0.2 build v10.0.2rc0 (win64)

CPU model: AMD Ryzen 7 3800X 8-Core Processor, instruction set [SSE2|AVX|AVX2]
Thread count: 8 physical cores, 16 logical processors, using up to 16 threads

Optimize a model with 297841 rows, 262799 columns and 709547 nonzeros
Model fingerprint: 0x63f8d607
Model has 8759 quadratic constraints
Variable types: 201480 continuous, 61319 integer (43800 binary)
Coefficient statistics:
  Matrix range     [1e-04, 3e+02]
  QMatrix range    [1e+00, 1e+00]
  Objective range  [1e-02, 3e+02]
  Bounds range     [1e+00, 3e+00]
  RHS range        [1e-03, 1e+03]
Presolve removed 230244 rows and 194376 columns
Presolve time: 0.88s
Presolved: 67597 rows, 68423 columns, 170232 nonzeros
Variable types: 34212 continuous, 34211 integer (34211 binary)
Found heuristic solution: objective -1210313.406
Deterministic concurrent LP optimizer: primal and dual simplex
Showing first log only...

Concurrent spin time: 0.00s

Solved with dual simplex

Root relaxation: objective -2.512466e+07, 5961 iterations, 0.29 seconds (0.34 work units)

    Nodes    |    Current Node    |     Objective Bounds      |     Work
 Expl Unexpl |  Obj  Depth IntInf | Incumbent    BestBd   Gap | It/Node Time

     0     0 -2.512e+07    0  164 -1210313.4 -2.512e+07  1976%     -    2s
H    0     0                    -5417176.943 -2.512e+07   364%     -    2s
H    0     0                    -2.51239e+07 -2.512e+07  0.00%     -    2s

Cutting planes:
  Gomory: 116
  Cover: 7
  Implied bound: 3
  Clique: 7
  MIR: 12
  Flow cover: 18

Explored 1 nodes (9861 simplex iterations) in 2.79 seconds (2.82 work units)
Thread count was 16 (of 16 available processors)

Solution count 3: -2.51239e+07 -5.41718e+06 -1.21031e+06 

Optimal solution found (tolerance 1.00e-04)
Best objective -2.512386894596e+07, best bound -2.512465511238e+07, gap 0.0031%

